20	5
0	7	6	4	5	3	2	1	12
1	3	18	8	13
2	2	18	8
3	4	18	14	7	17
4	2	7	13
5	2	18	8
6	0
7	2	11	19
8	2	14	17
9	1	20
10	1	11
11	1	9
12	1	15
13	1	17
14	2	10	19
15	3	14	7	13
16	2	10	19
17	1	16
18	1	21
19	1	21
20	1	21
21	0
0	0	0	0	0	0	0
1	4	4	2	5	4	3
2	7	2	4	5	2	3
3	1	1	3	5	3	2
4	4	2	3	1	3	5
5	7	1	2	4	1	4
6	3	5	2	5	5	4
7	1	5	5	1	3	2
8	10	3	5	3	3	5
9	6	4	1	3	4	1
10	8	5	4	3	4	1
11	1	5	2	1	1	2
12	9	1	1	3	4	1
13	5	3	2	2	2	5
14	3	5	3	3	1	3
15	9	1	4	2	4	2
16	2	3	4	5	2	3
17	1	2	3	3	5	2
18	5	2	1	2	3	1
19	3	1	2	1	1	4
20	10	4	4	5	1	3
21	0	0	0	0	0	0
8	8	11	9	9
